NB_PERIODS = 4;
NB_VENUES = 3;
GAME_DURATION = 60;
NB_GAMES = 6; % 3*(3-1)/2 + 3*(3-1)/2
NB_TEAMS = 6;
NB_DIVISIONS = 2;

NB_TEAMS_PER_DIVISION = [3, 3];
% coaches = [1, 2, 3, 4, 5, 6]

VENUE_AVAILABILITIES = [|true,true,false,false 
  |false,false,true,true
  |true,false,false,true|];

GAMES_TO_SCHEDULE = [|Div_1_Team_1, Div_1_Team_2
  |Div_1_Team_1, Div_1_Team_3
  |Div_1_Team_2, Div_1_Team_3
  |Div_2_Team_1, Div_2_Team_2
  |Div_2_Team_1, Div_2_Team_3
  |Div_2_Team_2, Div_2_Team_3|];
  
TEAM_NAMES = ["Div_1_Team_1", "Div_1_Team_2", "Div_2_Team_3", "Div_2_Team_1", "Div_2_Team_2", "Div_2_Team_3"];
  
TEAM_NAMES_ENUM = {Div_1_Team_1, Div_1_Team_2, Div_1_Team_3, Div_2_Team_1, Div_2_Team_2, Div_2_Team_3};